
Gurobi 6.0.2 (mac64) logging started Fri Oct  9 14:16:04 2015


Gurobi 6.0.2 (mac64) logging started Fri Oct  9 14:16:26 2015


Gurobi 6.0.2 (mac64) logging started Fri Oct  9 14:22:09 2015


Gurobi 6.0.2 (mac64) logging started Fri Oct  9 14:24:16 2015


Gurobi 6.0.2 (mac64) logging started Fri Oct  9 14:30:13 2015


Gurobi 6.0.2 (mac64) logging started Fri Oct  9 14:30:49 2015


Gurobi 6.0.2 (mac64) logging started Fri Oct  9 14:31:28 2015


Gurobi 6.0.2 (mac64) logging started Fri Oct  9 14:32:21 2015


Gurobi 6.0.2 (mac64) logging started Fri Oct  9 14:34:38 2015


Gurobi 6.0.2 (mac64) logging started Fri Oct  9 14:37:45 2015


Gurobi 6.0.2 (mac64) logging started Fri Oct  9 14:38:03 2015


Gurobi 6.0.2 (mac64) logging started Fri Oct  9 14:38:37 2015


Gurobi 6.0.2 (mac64) logging started Fri Oct  9 14:41:05 2015


Gurobi 6.0.2 (mac64) logging started Fri Oct  9 14:51:47 2015


Gurobi 6.0.2 (mac64) logging started Fri Oct  9 14:53:39 2015


Gurobi 6.0.2 (mac64) logging started Fri Oct  9 14:55:31 2015


Gurobi 6.0.2 (mac64) logging started Fri Oct  9 14:55:56 2015


Gurobi 6.0.2 (mac64) logging started Fri Oct  9 14:56:30 2015


Gurobi 6.0.2 (mac64) logging started Fri Oct  9 14:59:34 2015


Gurobi 6.0.2 (mac64) logging started Fri Oct  9 15:03:43 2015


Gurobi 6.0.2 (mac64) logging started Fri Oct  9 15:04:39 2015


Gurobi 6.0.2 (mac64) logging started Fri Oct  9 15:05:31 2015


Gurobi 6.0.2 (mac64) logging started Fri Oct  9 15:07:43 2015


Gurobi 6.0.2 (mac64) logging started Fri Oct  9 15:08:26 2015


Gurobi 6.0.2 (mac64) logging started Fri Oct  9 15:09:21 2015


Gurobi 6.0.2 (mac64) logging started Fri Oct  9 15:09:46 2015


Gurobi 6.0.2 (mac64) logging started Fri Oct  9 15:10:39 2015


Gurobi 6.0.2 (mac64) logging started Fri Oct  9 15:27:35 2015


Gurobi 6.0.2 (mac64) logging started Fri Oct  9 15:27:58 2015


Gurobi 6.0.2 (mac64) logging started Fri Oct  9 15:28:21 2015


Gurobi 6.0.2 (mac64) logging started Fri Oct  9 15:29:14 2015


Gurobi 6.0.2 (mac64) logging started Fri Oct  9 15:29:30 2015


Gurobi 6.0.2 (mac64) logging started Fri Oct  9 15:32:58 2015


Gurobi 6.0.2 (mac64) logging started Fri Oct  9 15:33:34 2015


Gurobi 6.0.2 (mac64) logging started Fri Oct  9 15:35:10 2015


Gurobi 6.0.2 (mac64) logging started Fri Oct  9 15:35:58 2015


Gurobi 6.0.2 (mac64) logging started Fri Oct  9 15:38:34 2015


Gurobi 6.0.2 (mac64) logging started Fri Oct  9 15:39:17 2015


Gurobi 6.0.2 (mac64) logging started Fri Oct  9 15:39:59 2015


Gurobi 6.0.2 (mac64) logging started Fri Oct  9 15:40:39 2015


Gurobi 6.0.2 (mac64) logging started Fri Oct  9 15:41:30 2015


Gurobi 6.0.2 (mac64) logging started Fri Oct  9 15:41:51 2015


Gurobi 6.0.2 (mac64) logging started Fri Oct  9 15:42:07 2015


Gurobi 6.0.2 (mac64) logging started Fri Oct  9 23:08:25 2015


Gurobi 6.0.2 (mac64) logging started Fri Oct  9 23:16:25 2015


Gurobi 6.0.2 (mac64) logging started Fri Oct  9 23:19:32 2015


Gurobi 6.0.2 (mac64) logging started Fri Oct  9 23:22:15 2015


Gurobi 6.0.2 (mac64) logging started Fri Oct  9 23:24:47 2015


Gurobi 6.0.2 (mac64) logging started Fri Oct  9 23:25:17 2015


Gurobi 6.0.2 (mac64) logging started Sat Oct 10 00:02:10 2015


Gurobi 6.0.2 (mac64) logging started Sat Oct 10 00:06:35 2015


Gurobi 6.0.2 (mac64) logging started Sat Oct 10 00:14:03 2015


Gurobi 6.0.2 (mac64) logging started Sat Oct 10 00:14:49 2015


Gurobi 6.0.2 (mac64) logging started Sat Oct 10 00:16:01 2015


Gurobi 6.0.2 (mac64) logging started Sat Oct 10 00:16:23 2015


Gurobi 6.0.2 (mac64) logging started Sat Oct 10 00:30:55 2015


Gurobi 6.0.2 (mac64) logging started Sat Oct 10 00:31:42 2015


Gurobi 6.0.2 (mac64) logging started Sat Oct 10 00:33:05 2015


Gurobi 6.0.2 (mac64) logging started Sat Oct 10 00:33:31 2015


Gurobi 6.0.2 (mac64) logging started Sat Oct 10 10:07:43 2015


Gurobi 6.0.2 (mac64) logging started Sat Oct 10 10:08:50 2015


Gurobi 6.0.2 (mac64) logging started Sat Oct 10 10:09:14 2015


Gurobi 6.0.2 (mac64) logging started Sat Oct 10 10:10:04 2015


Gurobi 6.0.2 (mac64) logging started Sat Oct 10 10:10:47 2015


Gurobi 6.0.2 (mac64) logging started Sat Oct 10 10:11:14 2015


Gurobi 6.0.2 (mac64) logging started Sat Oct 10 10:11:33 2015


Gurobi 6.0.2 (mac64) logging started Sat Oct 10 10:12:58 2015


Gurobi 6.0.2 (mac64) logging started Sat Oct 10 10:20:05 2015


Gurobi 6.0.2 (win64) logging started 10/10/15 10:42:34


Gurobi 6.0.2 (win64) logging started 10/10/15 10:45:03


Gurobi 6.0.2 (win64) logging started 10/10/15 10:46:04


Gurobi 6.0.2 (win64) logging started 10/10/15 11:01:35


Gurobi 6.0.2 (mac64) logging started Fri Oct 16 01:18:46 2015


Gurobi 6.0.2 (mac64) logging started Fri Oct 16 01:19:19 2015


Gurobi 6.0.2 (mac64) logging started Fri Oct 16 01:19:35 2015


Gurobi 6.0.2 (mac64) logging started Fri Oct 16 01:21:52 2015

